10	5
0	5	3	1	2	5	4
1	3	8	9	10
2	2	7	8
3	0
4	1	9
5	2	6	8
6	1	10
7	1	11
8	1	11
9	1	11
10	1	11
11	0
0	0	0	0	0	0	0
1	1	0	2	0	5	2
2	9	3	0	1	0	0
3	6	0	0	4	0	1
4	6	0	0	4	0	0
5	3	0	0	0	4	2
6	5	0	0	0	5	0
7	9	0	4	0	0	4
8	10	1	0	1	2	0
9	2	4	2	3	0	1
10	5	4	2	3	5	5
11	0	0	0	0	0	0
6	4	8	7	5
